c Generated map
c Size: 15 * 15, weights in range: 1 to 10, walls: True, with ratio 0.05
c dim 3 of 4
c
p sp 225 379
c graph contains 225 nodes and 379 arcs
c
a 1 16 5
a 16 1 5
a 1 2 4
a 2 1 4
a 2 17 10
a 17 2 10
a 2 3 10
a 3 2 10
a 3 18 7
a 18 3 7
a 3 4 4
a 4 3 4
a 4 19 4
a 19 4 4
a 4 5 5
a 5 4 5
a 5 20 5
a 20 5 5
a 5 6 4
a 6 5 4
a 6 21 5
a 21 6 5
a 6 7 7
a 7 6 7
a 7 22 2
a 22 7 2
a 7 8 6
a 8 7 6
a 8 23 6
a 23 8 6
a 8 9 6
a 9 8 6
a 9 24 6
a 24 9 6
a 9 10 8
a 10 9 8
a 10 25 1
a 25 10 1
a 10 11 9
a 11 10 9
a 11 26 8
a 26 11 8
a 11 12 3
a 12 11 3
a 12 27 6
a 27 12 6
a 12 13 4
a 13 12 4
a 13 28 7
a 28 13 7
a 13 14 9
a 14 13 9
a 14 29 1
a 29 14 1
a 14 15 7
a 15 14 7
a 15 30 8
a 30 15 8
a 16 31 2
a 31 16 2
a 16 17 6
a 17 16 6
a 17 18 9
a 18 17 9
a 18 33 3
a 33 18 3
a 18 19 3
a 19 18 3
a 19 34 6
a 34 19 6
a 19 20 7
a 20 19 7
a 20 35 7
a 35 20 7
a 20 21 6
a 21 20 6
a 21 36 5
a 36 21 5
a 21 22 7
a 22 21 7
a 22 37 2
a 37 22 2
a 22 23 10
a 23 22 10
a 23 38 9
a 38 23 9
a 23 24 2
a 24 23 2
a 24 39 4
a 39 24 4
a 24 25 4
a 25 24 4
a 25 40 1
a 40 25 1
a 25 26 6
a 26 25 6
a 26 41 4
a 41 26 4
a 26 27 2
a 27 26 2
a 27 42 9
a 42 27 9
a 27 28 7
a 28 27 7
a 28 43 1
a 43 28 1
a 28 29 2
a 29 28 2
a 29 44 2
a 44 29 2
a 29 30 6
a 30 29 6
a 30 45 1
a 45 30 1
a 31 46 5
a 46 31 5
a 33 48 7
a 48 33 7
a 33 34 6
a 34 33 6
a 34 49 5
a 49 34 5
a 34 35 5
a 35 34 5
a 35 50 7
a 50 35 7
a 35 36 10
a 36 35 10
a 36 51 7
a 51 36 7
a 36 37 2
a 37 36 2
a 37 52 6
a 52 37 6
a 37 38 5
a 38 37 5
a 38 53 9
a 53 38 9
a 38 39 3
a 39 38 3
a 39 54 8
a 54 39 8
a 39 40 2
a 40 39 2
a 40 55 8
a 55 40 8
a 40 41 9
a 41 40 9
a 41 56 1
a 56 41 1
a 41 42 1
a 42 41 1
a 42 57 1
a 57 42 1
a 42 43 6
a 43 42 6
a 43 58 8
a 58 43 8
a 43 44 2
a 44 43 2
a 44 59 2
a 59 44 2
a 44 45 8
a 45 44 8
a 45 60 3
a 60 45 3
a 46 61 6
a 61 46 6
a 46 47 3
a 47 46 3
a 47 62 8
a 62 47 8
a 47 48 2
a 48 47 2
a 48 63 1
a 63 48 1
a 48 49 8
a 49 48 8
a 49 64 8
a 64 49 8
a 49 50 7
a 50 49 7
a 50 65 10
a 65 50 10
a 50 51 1
a 51 50 1
a 51 66 9
a 66 51 9
a 51 52 8
a 52 51 8
a 52 67 3
a 67 52 3
a 52 53 7
a 53 52 7
a 53 68 1
a 68 53 1
a 53 54 8
a 54 53 8
a 54 69 3
a 69 54 3
a 54 55 5
a 55 54 5
a 55 70 7
a 70 55 7
a 55 56 9
a 56 55 9
a 56 71 4
a 71 56 4
a 56 57 8
a 57 56 8
a 57 72 7
a 72 57 7
a 57 58 4
a 58 57 4
a 58 73 9
a 73 58 9
a 58 59 4
a 59 58 4
a 59 74 7
a 74 59 7
a 59 60 9
a 60 59 9
a 60 75 8
a 75 60 8
a 61 76 8
a 76 61 8
a 61 62 7
a 62 61 7
a 62 77 9
a 77 62 9
a 62 63 3
a 63 62 3
a 63 78 8
a 78 63 8
a 63 64 4
a 64 63 4
a 64 79 1
a 79 64 1
a 64 65 8
a 65 64 8
a 65 80 5
a 80 65 5
a 65 66 6
a 66 65 6
a 66 81 4
a 81 66 4
a 66 67 8
a 67 66 8
a 67 82 10
a 82 67 10
a 67 68 6
a 68 67 6
a 68 83 9
a 83 68 9
a 68 69 6
a 69 68 6
a 69 84 1
a 84 69 1
a 69 70 8
a 70 69 8
a 70 85 3
a 85 70 3
a 70 71 8
a 71 70 8
a 71 86 5
a 86 71 5
a 71 72 9
a 72 71 9
a 72 87 3
a 87 72 3
a 72 73 10
a 73 72 10
a 73 88 8
a 88 73 8
a 73 74 8
a 74 73 8
a 74 75 1
a 75 74 1
a 75 90 2
a 90 75 2
a 76 91 2
a 91 76 2
a 76 77 1
a 77 76 1
a 77 92 10
a 92 77 10
a 77 78 10
a 78 77 10
a 78 93 5
a 93 78 5
a 78 79 10
a 79 78 10
a 79 94 2
a 94 79 2
a 79 80 3
a 80 79 3
a 80 95 10
a 95 80 10
a 80 81 9
a 81 80 9
a 81 96 3
a 96 81 3
a 81 82 7
a 82 81 7
a 82 97 5
a 97 82 5
a 82 83 7
a 83 82 7
a 83 98 2
a 98 83 2
a 83 84 9
a 84 83 9
a 84 85 8
a 85 84 8
a 85 100 3
a 100 85 3
a 85 86 6
a 86 85 6
a 86 101 10
a 101 86 10
a 86 87 8
a 87 86 8
a 87 102 10
a 102 87 10
a 87 88 3
a 88 87 3
a 88 103 1
a 103 88 1
a 90 105 2
a 105 90 2
a 91 106 9
a 106 91 9
a 91 92 4
a 92 91 4
a 92 107 8
a 107 92 8
a 92 93 5
a 93 92 5
a 93 108 1
a 108 93 1
a 93 94 6
a 94 93 6
a 94 109 6
a 109 94 6
a 94 95 5
a 95 94 5
a 95 110 10
a 110 95 10
a 95 96 7
a 96 95 7
a 96 111 5
a 111 96 5
a 96 97 7
a 97 96 7
a 97 112 6
a 112 97 6
a 97 98 7
a 98 97 7
a 98 113 6
a 113 98 6
a 100 115 5
a 115 100 5
a 100 101 7
a 101 100 7
a 101 116 3
a 116 101 3
a 101 102 7
a 102 101 7
a 102 117 10
a 117 102 10
a 102 103 9
a 103 102 9
a 103 118 10
a 118 103 10
a 103 104 4
a 104 103 4
a 104 119 8
a 119 104 8
a 104 105 2
a 105 104 2
a 106 121 9
a 121 106 9
a 106 107 10
a 107 106 10
a 107 122 7
a 122 107 7
a 107 108 5
a 108 107 5
a 108 123 1
a 123 108 1
a 108 109 8
a 109 108 8
a 109 110 4
a 110 109 4
a 110 125 4
a 125 110 4
a 110 111 5
a 111 110 5
a 111 126 8
a 126 111 8
a 111 112 5
a 112 111 5
a 112 127 1
a 127 112 1
a 112 113 10
a 113 112 10
a 113 128 1
a 128 113 1
a 113 114 6
a 114 113 6
a 114 129 7
a 129 114 7
a 114 115 8
a 115 114 8
a 115 130 3
a 130 115 3
a 115 116 5
a 116 115 5
a 116 131 9
a 131 116 9
a 116 117 4
a 117 116 4
a 117 132 5
a 132 117 5
a 117 118 2
a 118 117 2
a 118 133 10
a 133 118 10
a 118 119 10
a 119 118 10
a 119 134 3
a 134 119 3
a 121 136 7
a 136 121 7
a 121 122 7
a 122 121 7
a 122 137 8
a 137 122 8
a 122 123 10
a 123 122 10
a 123 138 1
a 138 123 1
a 125 140 10
a 140 125 10
a 125 126 8
a 126 125 8
a 126 141 8
a 141 126 8
a 126 127 2
a 127 126 2
a 127 142 10
a 142 127 10
a 127 128 9
a 128 127 9
a 128 143 4
a 143 128 4
a 128 129 5
a 129 128 5
a 129 144 3
a 144 129 3
a 129 130 10
a 130 129 10
a 130 145 10
a 145 130 10
a 130 131 3
a 131 130 3
a 131 146 8
a 146 131 8
a 131 132 4
a 132 131 4
a 132 147 10
a 147 132 10
a 132 133 9
a 133 132 9
a 133 134 9
a 134 133 9
a 134 149 3
a 149 134 3
a 134 135 3
a 135 134 3
a 135 150 1
a 150 135 1
a 136 151 9
a 151 136 9
a 136 137 1
a 137 136 1
a 137 152 7
a 152 137 7
a 137 138 2
a 138 137 2
a 138 153 7
a 153 138 7
a 138 139 5
a 139 138 5
a 139 154 2
a 154 139 2
a 139 140 1
a 140 139 1
a 140 155 3
a 155 140 3
a 140 141 7
a 141 140 7
a 141 156 10
a 156 141 10
a 141 142 5
a 142 141 5
a 142 157 6
a 157 142 6
a 142 143 9
a 143 142 9
a 143 158 9
a 158 143 9
a 143 144 1
a 144 143 1
a 144 159 4
a 159 144 4
a 144 145 2
a 145 144 2
a 145 160 7
a 160 145 7
a 145 146 2
a 146 145 2
a 146 161 7
a 161 146 7
a 146 147 8
a 147 146 8
a 147 162 2
a 162 147 2
a 149 164 9
a 164 149 9
a 149 150 10
a 150 149 10
a 150 165 6
a 165 150 6
a 151 166 1
a 166 151 1
a 151 152 1
a 152 151 1
a 152 167 3
a 167 152 3
a 152 153 5
a 153 152 5
a 153 168 10
a 168 153 10
a 153 154 8
a 154 153 8
a 154 169 2
a 169 154 2
a 154 155 8
a 155 154 8
a 155 170 3
a 170 155 3
a 155 156 10
a 156 155 10
a 156 157 10
a 157 156 10
a 157 158 4
a 158 157 4
a 158 173 3
a 173 158 3
a 158 159 8
a 159 158 8
a 159 174 5
a 174 159 5
a 159 160 3
a 160 159 3
a 160 175 7
a 175 160 7
a 160 161 8
a 161 160 8
a 161 176 9
a 176 161 9
a 161 162 2
a 162 161 2
a 162 177 4
a 177 162 4
a 162 163 4
a 163 162 4
a 163 178 2
a 178 163 2
a 163 164 7
a 164 163 7
a 164 179 4
a 179 164 4
a 164 165 9
a 165 164 9
a 165 180 1
a 180 165 1
a 166 181 9
a 181 166 9
a 166 167 10
a 167 166 10
a 167 182 2
a 182 167 2
a 167 168 7
a 168 167 7
a 168 183 8
a 183 168 8
a 168 169 5
a 169 168 5
a 169 184 1
a 184 169 1
a 169 170 3
a 170 169 3
a 170 185 5
a 185 170 5
a 173 188 3
a 188 173 3
a 173 174 7
a 174 173 7
a 174 189 3
a 189 174 3
a 174 175 1
a 175 174 1
a 175 190 10
a 190 175 10
a 175 176 3
a 176 175 3
a 176 191 1
a 191 176 1
a 176 177 9
a 177 176 9
a 177 192 4
a 192 177 4
a 177 178 1
a 178 177 1
a 178 193 10
a 193 178 10
a 178 179 9
a 179 178 9
a 179 194 8
a 194 179 8
a 179 180 8
a 180 179 8
a 180 195 5
a 195 180 5
a 181 196 10
a 196 181 10
a 181 182 7
a 182 181 7
a 182 183 6
a 183 182 6
a 183 198 3
a 198 183 3
a 183 184 5
a 184 183 5
a 184 199 10
a 199 184 10
a 184 185 6
a 185 184 6
a 185 200 7
a 200 185 7
a 185 186 10
a 186 185 10
a 186 201 4
a 201 186 4
a 186 187 10
a 187 186 10
a 187 202 9
a 202 187 9
a 187 188 4
a 188 187 4
a 188 203 4
a 203 188 4
a 188 189 8
a 189 188 8
a 189 204 1
a 204 189 1
a 189 190 5
a 190 189 5
a 190 191 6
a 191 190 6
a 191 206 1
a 206 191 1
a 191 192 8
a 192 191 8
a 192 207 3
a 207 192 3
a 192 193 4
a 193 192 4
a 193 208 9
a 208 193 9
a 193 194 7
a 194 193 7
a 194 209 10
a 209 194 10
a 194 195 10
a 195 194 10
a 195 210 3
a 210 195 3
a 196 211 6
a 211 196 6
a 198 213 4
a 213 198 4
a 198 199 1
a 199 198 1
a 199 200 10
a 200 199 10
a 200 215 5
a 215 200 5
a 200 201 5
a 201 200 5
a 201 216 3
a 216 201 3
a 201 202 9
a 202 201 9
a 202 217 4
a 217 202 4
a 202 203 2
a 203 202 2
a 203 218 7
a 218 203 7
a 203 204 4
a 204 203 4
a 204 219 10
a 219 204 10
a 206 221 9
a 221 206 9
a 206 207 6
a 207 206 6
a 207 222 2
a 222 207 2
a 207 208 7
a 208 207 7
a 208 223 4
a 223 208 4
a 208 209 9
a 209 208 9
a 209 224 6
a 224 209 6
a 209 210 7
a 210 209 7
a 210 225 7
a 225 210 7
a 211 212 9
a 212 211 9
a 212 213 4
a 213 212 4
a 215 216 5
a 216 215 5
a 216 217 2
a 217 216 2
a 217 218 7
a 218 217 7
a 218 219 10
a 219 218 10
a 219 220 6
a 220 219 6
a 220 221 2
a 221 220 2
a 221 222 2
a 222 221 2
a 222 223 9
a 223 222 9
a 223 224 10
a 224 223 10
a 224 225 5
a 225 224 5
